c Instância derivada de trechos contínuos ao longo de uma trilha.
p edge 100 158
e 1 81
e 2 26
e 2 85
e 2 87
e 2 98
e 3 33
e 3 90
e 4 42
e 4 46
e 5 25
e 5 35
e 5 69
e 6 100
e 7 10
e 7 13
e 7 21
e 7 43
e 7 71
e 7 83
e 8 82
e 9 24
e 9 52
e 9 53
e 9 54
e 9 74
e 9 93
e 10 13
e 10 21
e 10 71
e 12 50
e 13 21
e 13 71
e 14 60
e 14 68
e 15 18
e 15 20
e 15 51
e 15 84
e 15 96
e 16 62
e 16 64
e 16 76
e 16 89
e 17 38
e 17 40
e 17 41
e 18 20
e 18 51
e 18 84
e 18 96
e 19 66
e 19 99
e 20 51
e 20 84
e 20 96
e 21 71
e 22 32
e 22 63
e 22 91
e 23 94
e 24 65
e 24 74
e 25 35
e 25 69
e 26 85
e 26 87
e 27 45
e 27 82
e 27 86
e 27 95
e 27 97
e 28 34
e 28 49
e 29 49
e 29 61
e 29 66
e 29 99
e 30 37
e 30 55
e 30 67
e 31 78
e 31 80
e 32 63
e 32 91
e 33 90
e 35 69
e 36 48
e 36 79
e 37 55
e 37 67
e 37 75
e 38 40
e 38 41
e 39 56
e 39 60
e 40 41
e 42 46
e 43 51
e 43 83
e 43 96
e 44 70
e 45 57
e 45 59
e 45 72
e 45 82
e 45 86
e 45 95
e 45 97
e 47 62
e 48 80
e 49 61
e 49 66
e 49 99
e 51 83
e 51 96
e 52 53
e 52 54
e 52 74
e 52 93
e 53 54
e 53 74
e 53 93
e 54 74
e 54 93
e 55 67
e 55 75
e 56 60
e 57 59
e 57 72
e 57 77
e 57 86
e 58 92
e 58 100
e 59 72
e 59 77
e 60 68
e 61 66
e 61 99
e 62 76
e 63 91
e 64 89
e 65 74
e 66 99
e 67 75
e 71 83
e 72 86
e 74 93
e 79 89
e 82 86
e 82 95
e 82 97
e 83 96
e 85 87
e 85 98
e 86 95
e 86 97
e 92 100
e 95 97
